instances/shortest_path/discrete_knapsack_uncertainty/nohadani_4_13.lp
\ Model nohadani_4_13
\ LP format - for model browsing. Use MPS format to capture full model detail.
\ Signature: 0x26b3cf7f3313a25f
Minimize
  15.29705854077836 y[0,2] + 53.60037313302958 y[0,3]
   + 90.35485598461214 y[1,2] + 50.80354318352215 y[1,3]
   + 15.29705854077836 y[2,0] + 90.35485598461214 y[2,1]
   + 43.46262762420146 y[2,3] + 53.60037313302958 y[3,0]
   + 50.80354318352215 y[3,1] + 43.46262762420146 y[3,2] + x[0,2] + x[0,3]
   + x[1,2] + x[1,3] + x[2,0] + x[2,1] + x[2,3] + x[3,0] + x[3,1] + x[3,2]
   + 1.529705854077836 r[0,2] + 5.360037313302959 r[0,3]
   + 9.035485598461214 r[1,2] + 5.080354318352216 r[1,3]
   + 1.529705854077836 r[2,0] + 9.035485598461214 r[2,1]
   + 4.346262762420146 r[2,3] + 5.360037313302959 r[3,0]
   + 5.080354318352216 r[3,1] + 4.346262762420146 r[3,2]
Subject To
 flow_cons_inner_nodes[2]: y[0,2] + y[1,2] - y[2,0] - y[2,1] - y[2,3]
   + y[3,2] = 0
 flow_cons_inner_nodes[3]: y[0,3] + y[1,3] + y[2,3] - y[3,0] - y[3,1]
   - y[3,2] = 0
 flow_cons_source: y[0,2] + y[0,3] - y[2,0] - y[3,0] = 1
 flow_cons_target: - y[1,2] - y[1,3] + y[2,1] + y[3,1] = 1
 primal_lower: 2.214045005608232 x[0,2] + 8.826671369128956 x[0,3]
   + 1.622576078757662 x[1,2] + 7.679226744130657 x[1,3]
   + 7.713542258592557 x[2,0] + 9.58102326782323 x[2,1]
   + 8.995811241833989 x[2,3] + 3.262744829492773 x[3,0]
   + 8.10779728188902 x[3,1] + 2.862240076345024 x[3,2] + 25 u[0,2]
   + u[0,3] + 15 u[1,2] + 88 u[1,3] + 73 u[2,0] + 71 u[2,1] + 98 u[2,3]
   + 53 u[3,0] + 74 u[3,1] + 7 u[3,2] <= 98
 mccormick1[0,2]: - u[0,2] + r[0,2] <= 0
 mccormick1[0,3]: - u[0,3] + r[0,3] <= 0
 mccormick1[1,2]: - u[1,2] + r[1,2] <= 0
 mccormick1[1,3]: - u[1,3] + r[1,3] <= 0
 mccormick1[2,0]: - u[2,0] + r[2,0] <= 0
 mccormick1[2,1]: - u[2,1] + r[2,1] <= 0
 mccormick1[2,3]: - u[2,3] + r[2,3] <= 0
 mccormick1[3,0]: - u[3,0] + r[3,0] <= 0
 mccormick1[3,1]: - u[3,1] + r[3,1] <= 0
 mccormick1[3,2]: - u[3,2] + r[3,2] <= 0
 mccormick2[0,2]: - y[0,2] + r[0,2] <= 0
 mccormick2[0,3]: - y[0,3] + r[0,3] <= 0
 mccormick2[1,2]: - y[1,2] + r[1,2] <= 0
 mccormick2[1,3]: - y[1,3] + r[1,3] <= 0
 mccormick2[2,0]: - y[2,0] + r[2,0] <= 0
 mccormick2[2,1]: - y[2,1] + r[2,1] <= 0
 mccormick2[2,3]: - y[2,3] + r[2,3] <= 0
 mccormick2[3,0]: - y[3,0] + r[3,0] <= 0
 mccormick2[3,1]: - y[3,1] + r[3,1] <= 0
 mccormick2[3,2]: - y[3,2] + r[3,2] <= 0
 mccormick3[0,2]: - y[0,2] - u[0,2] + r[0,2] >= -1
 mccormick3[0,3]: - y[0,3] - u[0,3] + r[0,3] >= -1
 mccormick3[1,2]: - y[1,2] - u[1,2] + r[1,2] >= -1
 mccormick3[1,3]: - y[1,3] - u[1,3] + r[1,3] >= -1
 mccormick3[2,0]: - y[2,0] - u[2,0] + r[2,0] >= -1
 mccormick3[2,1]: - y[2,1] - u[2,1] + r[2,1] >= -1
 mccormick3[2,3]: - y[2,3] - u[2,3] + r[2,3] >= -1
 mccormick3[3,0]: - y[3,0] - u[3,0] + r[3,0] >= -1
 mccormick3[3,1]: - y[3,1] - u[3,1] + r[3,1] >= -1
 mccormick3[3,2]: - y[3,2] - u[3,2] + r[3,2] >= -1
Bounds
Binaries
 y[0,2] y[0,3] y[1,2] y[1,3] y[2,0] y[2,1] y[2,3] y[3,0] y[3,1] y[3,2]
 x[0,2] x[0,3] x[1,2] x[1,3] x[2,0] x[2,1] x[2,3] x[3,0] x[3,1] x[3,2]
 u[0,2] u[0,3] u[1,2] u[1,3] u[2,0] u[2,1] u[2,3] u[3,0] u[3,1] u[3,2]
 r[0,2] r[0,3] r[1,2] r[1,3] r[2,0] r[2,1] r[2,3] r[3,0] r[3,1] r[3,2]
End
