instances/shortest_path/discrete_knapsack_uncertainty/nohadani_4_13.mps
* Signature: 0x26b3cf7f3313a25f
NAME nohadani_4_13
ROWS
 N  OBJ
 E  flow_cons_inner_nodes[2]
 E  flow_cons_inner_nodes[3]
 E  flow_cons_source
 E  flow_cons_target
 L  primal_lower
 L  mccormick1[0,2]
 L  mccormick1[0,3]
 L  mccormick1[1,2]
 L  mccormick1[1,3]
 L  mccormick1[2,0]
 L  mccormick1[2,1]
 L  mccormick1[2,3]
 L  mccormick1[3,0]
 L  mccormick1[3,1]
 L  mccormick1[3,2]
 L  mccormick2[0,2]
 L  mccormick2[0,3]
 L  mccormick2[1,2]
 L  mccormick2[1,3]
 L  mccormick2[2,0]
 L  mccormick2[2,1]
 L  mccormick2[2,3]
 L  mccormick2[3,0]
 L  mccormick2[3,1]
 L  mccormick2[3,2]
 G  mccormick3[0,2]
 G  mccormick3[0,3]
 G  mccormick3[1,2]
 G  mccormick3[1,3]
 G  mccormick3[2,0]
 G  mccormick3[2,1]
 G  mccormick3[2,3]
 G  mccormick3[3,0]
 G  mccormick3[3,1]
 G  mccormick3[3,2]
COLUMNS
    MARKER    'MARKER'                 'INTORG'
    y[0,2]    OBJ       1.5297058540778355e+01
    y[0,2]    flow_cons_inner_nodes[2]  1
    y[0,2]    flow_cons_source  1
    y[0,2]    mccormick2[0,2]  -1
    y[0,2]    mccormick3[0,2]  -1
    y[0,3]    OBJ       5.3600373133029585e+01
    y[0,3]    flow_cons_inner_nodes[3]  1
    y[0,3]    flow_cons_source  1
    y[0,3]    mccormick2[0,3]  -1
    y[0,3]    mccormick3[0,3]  -1
    y[1,2]    OBJ       9.0354855984612144e+01
    y[1,2]    flow_cons_inner_nodes[2]  1
    y[1,2]    flow_cons_target  -1
    y[1,2]    mccormick2[1,2]  -1
    y[1,2]    mccormick3[1,2]  -1
    y[1,3]    OBJ       5.0803543183522152e+01
    y[1,3]    flow_cons_inner_nodes[3]  1
    y[1,3]    flow_cons_target  -1
    y[1,3]    mccormick2[1,3]  -1
    y[1,3]    mccormick3[1,3]  -1
    y[2,0]    OBJ       1.5297058540778355e+01
    y[2,0]    flow_cons_inner_nodes[2]  -1
    y[2,0]    flow_cons_source  -1
    y[2,0]    mccormick2[2,0]  -1
    y[2,0]    mccormick3[2,0]  -1
    y[2,1]    OBJ       9.0354855984612144e+01
    y[2,1]    flow_cons_inner_nodes[2]  -1
    y[2,1]    flow_cons_target  1
    y[2,1]    mccormick2[2,1]  -1
    y[2,1]    mccormick3[2,1]  -1
    y[2,3]    OBJ       4.3462627624201460e+01
    y[2,3]    flow_cons_inner_nodes[2]  -1
    y[2,3]    flow_cons_inner_nodes[3]  1
    y[2,3]    mccormick2[2,3]  -1
    y[2,3]    mccormick3[2,3]  -1
    y[3,0]    OBJ       5.3600373133029585e+01
    y[3,0]    flow_cons_inner_nodes[3]  -1
    y[3,0]    flow_cons_source  -1
    y[3,0]    mccormick2[3,0]  -1
    y[3,0]    mccormick3[3,0]  -1
    y[3,1]    OBJ       5.0803543183522152e+01
    y[3,1]    flow_cons_inner_nodes[3]  -1
    y[3,1]    flow_cons_target  1
    y[3,1]    mccormick2[3,1]  -1
    y[3,1]    mccormick3[3,1]  -1
    y[3,2]    OBJ       4.3462627624201460e+01
    y[3,2]    flow_cons_inner_nodes[2]  1
    y[3,2]    flow_cons_inner_nodes[3]  -1
    y[3,2]    mccormick2[3,2]  -1
    y[3,2]    mccormick3[3,2]  -1
    x[0,2]    OBJ       1
    x[0,2]    primal_lower  2.2140450056082317e+00
    x[0,3]    OBJ       1
    x[0,3]    primal_lower  8.8266713691289560e+00
    x[1,2]    OBJ       1
    x[1,2]    primal_lower  1.6225760787576620e+00
    x[1,3]    OBJ       1
    x[1,3]    primal_lower  7.6792267441306565e+00
    x[2,0]    OBJ       1
    x[2,0]    primal_lower  7.7135422585925575e+00
    x[2,1]    OBJ       1
    x[2,1]    primal_lower  9.58102326782323
    x[2,3]    OBJ       1
    x[2,3]    primal_lower  8.9958112418339891e+00
    x[3,0]    OBJ       1
    x[3,0]    primal_lower  3.2627448294927732e+00
    x[3,1]    OBJ       1
    x[3,1]    primal_lower  8.10779728188902
    x[3,2]    OBJ       1
    x[3,2]    primal_lower  2.8622400763450235e+00
    u[0,2]    primal_lower  25
    u[0,2]    mccormick1[0,2]  -1
    u[0,2]    mccormick3[0,2]  -1
    u[0,3]    primal_lower  1
    u[0,3]    mccormick1[0,3]  -1
    u[0,3]    mccormick3[0,3]  -1
    u[1,2]    primal_lower  15
    u[1,2]    mccormick1[1,2]  -1
    u[1,2]    mccormick3[1,2]  -1
    u[1,3]    primal_lower  88
    u[1,3]    mccormick1[1,3]  -1
    u[1,3]    mccormick3[1,3]  -1
    u[2,0]    primal_lower  73
    u[2,0]    mccormick1[2,0]  -1
    u[2,0]    mccormick3[2,0]  -1
    u[2,1]    primal_lower  71
    u[2,1]    mccormick1[2,1]  -1
    u[2,1]    mccormick3[2,1]  -1
    u[2,3]    primal_lower  98
    u[2,3]    mccormick1[2,3]  -1
    u[2,3]    mccormick3[2,3]  -1
    u[3,0]    primal_lower  53
    u[3,0]    mccormick1[3,0]  -1
    u[3,0]    mccormick3[3,0]  -1
    u[3,1]    primal_lower  74
    u[3,1]    mccormick1[3,1]  -1
    u[3,1]    mccormick3[3,1]  -1
    u[3,2]    primal_lower  7
    u[3,2]    mccormick1[3,2]  -1
    u[3,2]    mccormick3[3,2]  -1
    r[0,2]    OBJ       1.5297058540778357e+00
    r[0,2]    mccormick1[0,2]  1
    r[0,2]    mccormick2[0,2]  1
    r[0,2]    mccormick3[0,2]  1
    r[0,3]    OBJ       5.3600373133029589e+00
    r[0,3]    mccormick1[0,3]  1
    r[0,3]    mccormick2[0,3]  1
    r[0,3]    mccormick3[0,3]  1
    r[1,2]    OBJ       9.0354855984612144e+00
    r[1,2]    mccormick1[1,2]  1
    r[1,2]    mccormick2[1,2]  1
    r[1,2]    mccormick3[1,2]  1
    r[1,3]    OBJ       5.0803543183522155e+00
    r[1,3]    mccormick1[1,3]  1
    r[1,3]    mccormick2[1,3]  1
    r[1,3]    mccormick3[1,3]  1
    r[2,0]    OBJ       1.5297058540778357e+00
    r[2,0]    mccormick1[2,0]  1
    r[2,0]    mccormick2[2,0]  1
    r[2,0]    mccormick3[2,0]  1
    r[2,1]    OBJ       9.0354855984612144e+00
    r[2,1]    mccormick1[2,1]  1
    r[2,1]    mccormick2[2,1]  1
    r[2,1]    mccormick3[2,1]  1
    r[2,3]    OBJ       4.3462627624201460e+00
    r[2,3]    mccormick1[2,3]  1
    r[2,3]    mccormick2[2,3]  1
    r[2,3]    mccormick3[2,3]  1
    r[3,0]    OBJ       5.3600373133029589e+00
    r[3,0]    mccormick1[3,0]  1
    r[3,0]    mccormick2[3,0]  1
    r[3,0]    mccormick3[3,0]  1
    r[3,1]    OBJ       5.0803543183522155e+00
    r[3,1]    mccormick1[3,1]  1
    r[3,1]    mccormick2[3,1]  1
    r[3,1]    mccormick3[3,1]  1
    r[3,2]    OBJ       4.3462627624201460e+00
    r[3,2]    mccormick1[3,2]  1
    r[3,2]    mccormick2[3,2]  1
    r[3,2]    mccormick3[3,2]  1
    MARKER    'MARKER'                 'INTEND'
RHS
    RHS1      flow_cons_source  1
    RHS1      flow_cons_target  1
    RHS1      primal_lower  98
    RHS1      mccormick3[0,2]  -1
    RHS1      mccormick3[0,3]  -1
    RHS1      mccormick3[1,2]  -1
    RHS1      mccormick3[1,3]  -1
    RHS1      mccormick3[2,0]  -1
    RHS1      mccormick3[2,1]  -1
    RHS1      mccormick3[2,3]  -1
    RHS1      mccormick3[3,0]  -1
    RHS1      mccormick3[3,1]  -1
    RHS1      mccormick3[3,2]  -1
BOUNDS
 BV BND1      y[0,2]  
 BV BND1      y[0,3]  
 BV BND1      y[1,2]  
 BV BND1      y[1,3]  
 BV BND1      y[2,0]  
 BV BND1      y[2,1]  
 BV BND1      y[2,3]  
 BV BND1      y[3,0]  
 BV BND1      y[3,1]  
 BV BND1      y[3,2]  
 BV BND1      x[0,2]  
 BV BND1      x[0,3]  
 BV BND1      x[1,2]  
 BV BND1      x[1,3]  
 BV BND1      x[2,0]  
 BV BND1      x[2,1]  
 BV BND1      x[2,3]  
 BV BND1      x[3,0]  
 BV BND1      x[3,1]  
 BV BND1      x[3,2]  
 BV BND1      u[0,2]  
 BV BND1      u[0,3]  
 BV BND1      u[1,2]  
 BV BND1      u[1,3]  
 BV BND1      u[2,0]  
 BV BND1      u[2,1]  
 BV BND1      u[2,3]  
 BV BND1      u[3,0]  
 BV BND1      u[3,1]  
 BV BND1      u[3,2]  
 BV BND1      r[0,2]  
 BV BND1      r[0,3]  
 BV BND1      r[1,2]  
 BV BND1      r[1,3]  
 BV BND1      r[2,0]  
 BV BND1      r[2,1]  
 BV BND1      r[2,3]  
 BV BND1      r[3,0]  
 BV BND1      r[3,1]  
 BV BND1      r[3,2]  
ENDATA
