instances/shortest_path/discrete_knapsack_uncertainty/nohadani_4_13.kp
852
98

[2.2140450056082317 8.826671369128956 1.622576078757662 7.6792267441306565 7.7135422585925575 9.58102326782323 8.995811241833989 3.2627448294927732 8.10779728188902 2.8622400763450235]

[25 1 15 88 73 71 98 53 74 7]
